p cnf 20 15
-6 7 -20 1 -16 0
-1 -13 10 7 4 0
16 15 2 9 -10 0
9 -15 14 -19 -12 0
-16 14 -2 3 13 0
-13 -6 -5 10 -17 0
-3 5 -14 -20 1 0
-17 -14 15 1 5 0
10 11 -17 8 7 0
-17 16 19 13 20 0
2 -10 -1 -8 20 0
9 6 4 20 7 0
-19 -3 9 18 -5 0
15 12 -7 10 -1 0
16 -18 -3 -13 -4 0
